c Sudoku solution
p cnf 729 0
113 0
121 0
178 0
219 0
234 0
327 0
349 0
383 0
446 0
459 0
487 0
511 0
526 0
557 0
582 0
671 0
461 0
699 0
686 0
539 0
189 0
745 0
781 0
285 0
814 0
888 0
984 0
837 0
931 0
617 0
842 0
851 0
241 0
391 0
873 0
963 0
253 0
754 0
896 0
825 0
869 0
276 0
498 0
593 0
638 0
643 0
194 0
372 0
297 0
147 0
364 0
544 0
568 0
575 0
474 0
624 0
948 0
767 0
956 0
792 0
779 0
929 0
912 0
415 0
166 0
358 0
155 0
262 0
132 0
228 0
335 0
316 0
718 0
736 0
723 0
422 0
433 0
652 0
665 0
977 0
995 0
